p wcnf 419 1396
w -2 0.367879 0
w 2 2.718282 0
w -3 0.367879 0
w 3 2.718282 0
w -4 0.367879 0
w 4 2.718282 0
w -5 0.367879 0
w 5 2.718282 0
w -6 0.367879 0
w 6 2.718282 0
w -7 0.367879 0
w 7 2.718282 0
w -8 0.367879 0
w 8 2.718282 0
w -9 0.367879 0
w 9 2.718282 0
w -11 0.367879 0
w 11 2.718282 0
w -12 0.367879 0
w 12 2.718282 0
w -13 0.367879 0
w 13 2.718282 0
w -14 0.367879 0
w 14 2.718282 0
w -15 0.367879 0
w 15 2.718282 0
w -16 0.367879 0
w 16 2.718282 0
w -17 0.367879 0
w 17 2.718282 0
w -18 0.367879 0
w 18 2.718282 0
w -19 0.367879 0
w 19 2.718282 0
w -20 0.367879 0
w 20 2.718282 0
w -21 0.367879 0
w 21 2.718282 0
w -23 0.367879 0
w 23 2.718282 0
w -24 0.367879 0
w 24 2.718282 0
w -25 0.367879 0
w 25 2.718282 0
w -26 0.367879 0
w 26 2.718282 0
w -27 0.367879 0
w 27 2.718282 0
w -28 0.367879 0
w 28 2.718282 0
w -29 0.367879 0
w 29 2.718282 0
w -30 0.367879 0
w 30 2.718282 0
w -31 0.367879 0
w 31 2.718282 0
w -32 0.367879 0
w 32 2.718282 0
w -33 0.367879 0
w 33 2.718282 0
w -34 0.367879 0
w 34 2.718282 0
w -36 0.367879 0
w 36 2.718282 0
w -37 0.367879 0
w 37 2.718282 0
w -38 0.367879 0
w 38 2.718282 0
w -39 0.367879 0
w 39 2.718282 0
w -40 0.367879 0
w 40 2.718282 0
w -41 0.367879 0
w 41 2.718282 0
w -42 0.367879 0
w 42 2.718282 0
w -43 0.367879 0
w 43 2.718282 0
w -44 0.367879 0
w 44 2.718282 0
w -45 0.367879 0
w 45 2.718282 0
w -46 0.367879 0
w 46 2.718282 0
w -47 0.367879 0
w 47 2.718282 0
w -49 0.367879 0
w 49 2.718282 0
w -50 0.367879 0
w 50 2.718282 0
w -51 0.367879 0
w 51 2.718282 0
w -52 0.367879 0
w 52 2.718282 0
w -53 0.367879 0
w 53 2.718282 0
w -54 0.367879 0
w 54 2.718282 0
w -55 0.367879 0
w 55 2.718282 0
w -56 0.367879 0
w 56 2.718282 0
w -57 0.367879 0
w 57 2.718282 0
w -59 0.367879 0
w 59 2.718282 0
w -60 0.367879 0
w 60 2.718282 0
w -61 0.367879 0
w 61 2.718282 0
w -62 0.367879 0
w 62 2.718282 0
w -63 0.367879 0
w 63 2.718282 0
w -64 0.367879 0
w 64 2.718282 0
w -65 0.367879 0
w 65 2.718282 0
w -66 0.367879 0
w 66 2.718282 0
w -67 0.367879 0
w 67 2.718282 0
w -69 0.367879 0
w 69 2.718282 0
w -70 0.367879 0
w 70 2.718282 0
w -71 0.367879 0
w 71 2.718282 0
w -72 0.367879 0
w 72 2.718282 0
w -73 0.367879 0
w 73 2.718282 0
w -74 0.367879 0
w 74 2.718282 0
w -75 0.367879 0
w 75 2.718282 0
w -76 0.367879 0
w 76 2.718282 0
w -78 0.367879 0
w 78 2.718282 0
w -79 0.367879 0
w 79 2.718282 0
w -80 0.367879 0
w 80 2.718282 0
w -81 0.367879 0
w 81 2.718282 0
w -82 0.367879 0
w 82 2.718282 0
w -83 0.367879 0
w 83 2.718282 0
w -84 0.367879 0
w 84 2.718282 0
w -85 0.367879 0
w 85 2.718282 0
w -86 0.367879 0
w 86 2.718282 0
w -87 0.367879 0
w 87 2.718282 0
w -89 0.367879 0
w 89 2.718282 0
w -90 0.367879 0
w 90 2.718282 0
w -91 0.367879 0
w 91 2.718282 0
w -92 0.367879 0
w 92 2.718282 0
w -93 0.367879 0
w 93 2.718282 0
w -94 0.367879 0
w 94 2.718282 0
w -95 0.367879 0
w 95 2.718282 0
w -96 0.367879 0
w 96 2.718282 0
w -97 0.367879 0
w 97 2.718282 0
w -98 0.367879 0
w 98 2.718282 0
w -99 0.367879 0
w 99 2.718282 0
w -100 0.367879 0
w 100 2.718282 0
w -101 0.367879 0
w 101 2.718282 0
w -102 0.367879 0
w 102 2.718282 0
w -103 0.367879 0
w 103 2.718282 0
w -104 0.367879 0
w 104 2.718282 0
w -106 0.367879 0
w 106 2.718282 0
w -107 0.367879 0
w 107 2.718282 0
w -108 0.367879 0
w 108 2.718282 0
w -109 0.367879 0
w 109 2.718282 0
w -110 0.367879 0
w 110 2.718282 0
w -111 0.367879 0
w 111 2.718282 0
w -113 0.367879 0
w 113 2.718282 0
w -114 0.367879 0
w 114 2.718282 0
w -115 0.367879 0
w 115 2.718282 0
w -116 0.367879 0
w 116 2.718282 0
w -117 0.367879 0
w 117 2.718282 0
w -118 0.367879 0
w 118 2.718282 0
w -119 0.367879 0
w 119 2.718282 0
w -121 0.367879 0
w 121 2.718282 0
w -122 0.367879 0
w 122 2.718282 0
w -123 0.367879 0
w 123 2.718282 0
w -124 0.367879 0
w 124 2.718282 0
w -125 0.367879 0
w 125 2.718282 0
w -126 0.367879 0
w 126 2.718282 0
w -127 0.367879 0
w 127 2.718282 0
w -128 0.367879 0
w 128 2.718282 0
w -130 0.367879 0
w 130 2.718282 0
w -131 0.367879 0
w 131 2.718282 0
w -132 0.367879 0
w 132 2.718282 0
w -133 0.367879 0
w 133 2.718282 0
w -134 0.367879 0
w 134 2.718282 0
w -135 0.367879 0
w 135 2.718282 0
w -136 0.367879 0
w 136 2.718282 0
w -138 0.367879 0
w 138 2.718282 0
w -139 0.367879 0
w 139 2.718282 0
w -140 0.367879 0
w 140 2.718282 0
w -141 0.367879 0
w 141 2.718282 0
w -143 0.367879 0
w 143 2.718282 0
w -144 0.367879 0
w 144 2.718282 0
w -145 0.367879 0
w 145 2.718282 0
w -146 0.367879 0
w 146 2.718282 0
w -147 0.367879 0
w 147 2.718282 0
w -148 0.367879 0
w 148 2.718282 0
w -149 0.367879 0
w 149 2.718282 0
w -150 0.367879 0
w 150 2.718282 0
w -151 0.367879 0
w 151 2.718282 0
w -152 0.367879 0
w 152 2.718282 0
w -153 0.367879 0
w 153 2.718282 0
w -154 0.367879 0
w 154 2.718282 0
w -155 0.367879 0
w 155 2.718282 0
w -157 0.367879 0
w 157 2.718282 0
w -158 0.367879 0
w 158 2.718282 0
w -159 0.367879 0
w 159 2.718282 0
w -160 0.367879 0
w 160 2.718282 0
w -161 0.367879 0
w 161 2.718282 0
w -162 0.367879 0
w 162 2.718282 0
w -163 0.367879 0
w 163 2.718282 0
w -165 0.367879 0
w 165 2.718282 0
w -166 0.367879 0
w 166 2.718282 0
w -167 0.367879 0
w 167 2.718282 0
w -168 0.367879 0
w 168 2.718282 0
w -169 0.367879 0
w 169 2.718282 0
w -170 0.367879 0
w 170 2.718282 0
w -171 0.367879 0
w 171 2.718282 0
w -172 0.367879 0
w 172 2.718282 0
w -174 0.367879 0
w 174 2.718282 0
w -175 0.367879 0
w 175 2.718282 0
w -176 0.367879 0
w 176 2.718282 0
w -177 0.367879 0
w 177 2.718282 0
w -178 0.367879 0
w 178 2.718282 0
w -179 0.367879 0
w 179 2.718282 0
w -180 0.367879 0
w 180 2.718282 0
w -181 0.367879 0
w 181 2.718282 0
w -182 0.367879 0
w 182 2.718282 0
w -183 0.367879 0
w 183 2.718282 0
w -184 0.367879 0
w 184 2.718282 0
w -185 0.367879 0
w 185 2.718282 0
w -187 0.367879 0
w 187 2.718282 0
w -188 0.367879 0
w 188 2.718282 0
w -189 0.367879 0
w 189 2.718282 0
w -190 0.367879 0
w 190 2.718282 0
w -192 0.367879 0
w 192 2.718282 0
w -193 0.367879 0
w 193 2.718282 0
w -194 0.367879 0
w 194 2.718282 0
w -195 0.367879 0
w 195 2.718282 0
w -196 0.367879 0
w 196 2.718282 0
w -197 0.367879 0
w 197 2.718282 0
w -199 0.367879 0
w 199 2.718282 0
w -200 0.367879 0
w 200 2.718282 0
w -201 0.367879 0
w 201 2.718282 0
w -202 0.367879 0
w 202 2.718282 0
w -203 0.367879 0
w 203 2.718282 0
w -204 0.367879 0
w 204 2.718282 0
w -205 0.367879 0
w 205 2.718282 0
w -206 0.367879 0
w 206 2.718282 0
w -208 0.367879 0
w 208 2.718282 0
w -209 0.367879 0
w 209 2.718282 0
w -210 0.367879 0
w 210 2.718282 0
w -211 0.367879 0
w 211 2.718282 0
w -213 0.367879 0
w 213 2.718282 0
w -214 0.367879 0
w 214 2.718282 0
w -215 0.367879 0
w 215 2.718282 0
w -216 0.367879 0
w 216 2.718282 0
w -217 0.367879 0
w 217 2.718282 0
w -218 0.367879 0
w 218 2.718282 0
w -220 0.367879 0
w 220 2.718282 0
w -221 0.367879 0
w 221 2.718282 0
w -222 0.367879 0
w 222 2.718282 0
w -224 0.367879 0
w 224 2.718282 0
w -225 0.367879 0
w 225 2.718282 0
w -226 0.367879 0
w 226 2.718282 0
w -227 0.367879 0
w 227 2.718282 0
w -228 0.367879 0
w 228 2.718282 0
w -230 0.367879 0
w 230 2.718282 0
w -231 0.367879 0
w 231 2.718282 0
w -232 0.367879 0
w 232 2.718282 0
w -233 0.367879 0
w 233 2.718282 0
w -234 0.367879 0
w 234 2.718282 0
w -235 0.367879 0
w 235 2.718282 0
w -237 0.367879 0
w 237 2.718282 0
w -238 0.367879 0
w 238 2.718282 0
w -239 0.367879 0
w 239 2.718282 0
w -240 0.367879 0
w 240 2.718282 0
w -241 0.367879 0
w 241 2.718282 0
w -242 0.367879 0
w 242 2.718282 0
w -243 0.367879 0
w 243 2.718282 0
w -244 0.367879 0
w 244 2.718282 0
w -245 0.367879 0
w 245 2.718282 0
w -247 0.367879 0
w 247 2.718282 0
w -248 0.367879 0
w 248 2.718282 0
w -249 0.367879 0
w 249 2.718282 0
w -251 0.367879 0
w 251 2.718282 0
w -252 0.367879 0
w 252 2.718282 0
w -253 0.367879 0
w 253 2.718282 0
w -254 0.367879 0
w 254 2.718282 0
w -255 0.367879 0
w 255 2.718282 0
w -257 0.367879 0
w 257 2.718282 0
w -258 0.367879 0
w 258 2.718282 0
w -259 0.367879 0
w 259 2.718282 0
w -261 0.367879 0
w 261 2.718282 0
w -262 0.367879 0
w 262 2.718282 0
w -263 0.367879 0
w 263 2.718282 0
w -265 0.367879 0
w 265 2.718282 0
w -266 0.367879 0
w 266 2.718282 0
w -267 0.367879 0
w 267 2.718282 0
w -268 0.367879 0
w 268 2.718282 0
w -269 0.367879 0
w 269 2.718282 0
w -270 0.367879 0
w 270 2.718282 0
w -271 0.367879 0
w 271 2.718282 0
w -273 0.367879 0
w 273 2.718282 0
w -274 0.367879 0
w 274 2.718282 0
w -275 0.367879 0
w 275 2.718282 0
w -276 0.367879 0
w 276 2.718282 0
w -277 0.367879 0
w 277 2.718282 0
w -278 0.367879 0
w 278 2.718282 0
w -279 0.367879 0
w 279 2.718282 0
w -281 0.367879 0
w 281 2.718282 0
w -282 0.367879 0
w 282 2.718282 0
w -283 0.367879 0
w 283 2.718282 0
w -284 0.367879 0
w 284 2.718282 0
w -285 0.367879 0
w 285 2.718282 0
w -287 0.367879 0
w 287 2.718282 0
w -288 0.367879 0
w 288 2.718282 0
w -289 0.367879 0
w 289 2.718282 0
w -290 0.367879 0
w 290 2.718282 0
w -291 0.367879 0
w 291 2.718282 0
w -292 0.367879 0
w 292 2.718282 0
w -294 0.367879 0
w 294 2.718282 0
w -295 0.367879 0
w 295 2.718282 0
w -296 0.367879 0
w 296 2.718282 0
w -298 0.367879 0
w 298 2.718282 0
w -299 0.367879 0
w 299 2.718282 0
w -300 0.367879 0
w 300 2.718282 0
w -301 0.367879 0
w 301 2.718282 0
w -302 0.367879 0
w 302 2.718282 0
w -303 0.367879 0
w 303 2.718282 0
w -305 0.367879 0
w 305 2.718282 0
w -306 0.367879 0
w 306 2.718282 0
w -307 0.367879 0
w 307 2.718282 0
w -308 0.367879 0
w 308 2.718282 0
w -309 0.367879 0
w 309 2.718282 0
w -310 0.367879 0
w 310 2.718282 0
w -311 0.367879 0
w 311 2.718282 0
w -312 0.367879 0
w 312 2.718282 0
w -314 0.367879 0
w 314 2.718282 0
w -315 0.367879 0
w 315 2.718282 0
w -316 0.367879 0
w 316 2.718282 0
w -318 0.367879 0
w 318 2.718282 0
w -319 0.367879 0
w 319 2.718282 0
w -320 0.367879 0
w 320 2.718282 0
w -321 0.367879 0
w 321 2.718282 0
w -322 0.367879 0
w 322 2.718282 0
w -324 0.367879 0
w 324 2.718282 0
w -326 0.367879 0
w 326 2.718282 0
w -327 0.367879 0
w 327 2.718282 0
w -328 0.367879 0
w 328 2.718282 0
w -329 0.367879 0
w 329 2.718282 0
w -331 0.367879 0
w 331 2.718282 0
w -332 0.367879 0
w 332 2.718282 0
w -333 0.367879 0
w 333 2.718282 0
w -334 0.367879 0
w 334 2.718282 0
w -335 0.367879 0
w 335 2.718282 0
w -337 0.367879 0
w 337 2.718282 0
w -338 0.367879 0
w 338 2.718282 0
w -339 0.367879 0
w 339 2.718282 0
w -341 0.367879 0
w 341 2.718282 0
w -342 0.367879 0
w 342 2.718282 0
w -343 0.367879 0
w 343 2.718282 0
w -344 0.367879 0
w 344 2.718282 0
w -345 0.367879 0
w 345 2.718282 0
w -347 0.367879 0
w 347 2.718282 0
w -348 0.367879 0
w 348 2.718282 0
w -349 0.367879 0
w 349 2.718282 0
w -350 0.367879 0
w 350 2.718282 0
w -351 0.367879 0
w 351 2.718282 0
w -353 0.367879 0
w 353 2.718282 0
w -354 0.367879 0
w 354 2.718282 0
w -355 0.367879 0
w 355 2.718282 0
w -356 0.367879 0
w 356 2.718282 0
w -358 0.367879 0
w 358 2.718282 0
w -359 0.367879 0
w 359 2.718282 0
w -360 0.367879 0
w 360 2.718282 0
w -361 0.367879 0
w 361 2.718282 0
w -362 0.367879 0
w 362 2.718282 0
w -363 0.367879 0
w 363 2.718282 0
w -365 0.367879 0
w 365 2.718282 0
w -366 0.367879 0
w 366 2.718282 0
w -367 0.367879 0
w 367 2.718282 0
w -369 0.367879 0
w 369 2.718282 0
w -370 0.367879 0
w 370 2.718282 0
w -371 0.367879 0
w 371 2.718282 0
w -373 0.367879 0
w 373 2.718282 0
w -375 0.367879 0
w 375 2.718282 0
w -376 0.367879 0
w 376 2.718282 0
w -377 0.367879 0
w 377 2.718282 0
w -379 0.367879 0
w 379 2.718282 0
w -380 0.367879 0
w 380 2.718282 0
w -381 0.367879 0
w 381 2.718282 0
w -382 0.367879 0
w 382 2.718282 0
w -383 0.367879 0
w 383 2.718282 0
w -385 0.367879 0
w 385 2.718282 0
w -388 0.367879 0
w 388 2.718282 0
w -390 0.367879 0
w 390 2.718282 0
w -391 0.367879 0
w 391 2.718282 0
w -392 0.367879 0
w 392 2.718282 0
w -394 0.367879 0
w 394 2.718282 0
w -395 0.367879 0
w 395 2.718282 0
w -397 0.367879 0
w 397 2.718282 0
w -398 0.367879 0
w 398 2.718282 0
w -400 0.367879 0
w 400 2.718282 0
w -401 0.367879 0
w 401 2.718282 0
w -403 0.367879 0
w 403 2.718282 0
w -404 0.367879 0
w 404 2.718282 0
w -406 0.367879 0
w 406 2.718282 0
w -407 0.367879 0
w 407 2.718282 0
w -409 0.367879 0
w 409 2.718282 0
w -412 0.367879 0
w 412 2.718282 0
w -414 0.367879 0
w 414 2.718282 0
w -418 0.367879 0
w 418 2.718282 0
2 1 77 0
2 -1 -77 0
-2 1 -77 0
-2 -1 77 0
3 1 112 0
3 -1 -112 0
-3 1 -112 0
-3 -1 112 0
4 1 191 0
4 -1 -191 0
-4 1 -191 0
-4 -1 191 0
5 1 198 0
5 -1 -198 0
-5 1 -198 0
-5 -1 198 0
6 1 219 0
6 -1 -219 0
-6 1 -219 0
-6 -1 219 0
7 1 272 0
7 -1 -272 0
-7 1 -272 0
-7 -1 272 0
8 1 410 0
8 -1 -410 0
-8 1 -410 0
-8 -1 410 0
9 1 419 0
9 -1 -419 0
-9 1 -419 0
-9 -1 419 0
11 10 58 0
11 -10 -58 0
-11 10 -58 0
-11 -10 58 0
12 10 156 0
12 -10 -156 0
-12 10 -156 0
-12 -10 156 0
13 10 198 0
13 -10 -198 0
-13 10 -198 0
-13 -10 198 0
14 10 313 0
14 -10 -313 0
-14 10 -313 0
-14 -10 313 0
15 10 317 0
15 -10 -317 0
-15 10 -317 0
-15 -10 317 0
16 10 336 0
16 -10 -336 0
-16 10 -336 0
-16 -10 336 0
17 10 346 0
17 -10 -346 0
-17 10 -346 0
-17 -10 346 0
18 10 378 0
18 -10 -378 0
-18 10 -378 0
-18 -10 378 0
19 10 387 0
19 -10 -387 0
-19 10 -387 0
-19 -10 387 0
20 10 396 0
20 -10 -396 0
-20 10 -396 0
-20 -10 396 0
21 10 416 0
21 -10 -416 0
-21 10 -416 0
-21 -10 416 0
23 22 35 0
23 -22 -35 0
-23 22 -35 0
-23 -22 35 0
24 22 48 0
24 -22 -48 0
-24 22 -48 0
-24 -22 48 0
25 22 112 0
25 -22 -112 0
-25 22 -112 0
-25 -22 112 0
26 22 120 0
26 -22 -120 0
-26 22 -120 0
-26 -22 120 0
27 22 191 0
27 -22 -191 0
-27 22 -191 0
-27 -22 191 0
28 22 219 0
28 -22 -219 0
-28 22 -219 0
-28 -22 219 0
29 22 223 0
29 -22 -223 0
-29 22 -223 0
-29 -22 223 0
30 22 250 0
30 -22 -250 0
-30 22 -250 0
-30 -22 250 0
31 22 352 0
31 -22 -352 0
-31 22 -352 0
-31 -22 352 0
32 22 364 0
32 -22 -364 0
-32 22 -364 0
-32 -22 364 0
33 22 384 0
33 -22 -384 0
-33 22 -384 0
-33 -22 384 0
34 22 396 0
34 -22 -396 0
-34 22 -396 0
-34 -22 396 0
36 35 88 0
36 -35 -88 0
-36 35 -88 0
-36 -35 88 0
37 35 105 0
37 -35 -105 0
-37 35 -105 0
-37 -35 105 0
38 35 164 0
38 -35 -164 0
-38 35 -164 0
-38 -35 164 0
39 35 191 0
39 -35 -191 0
-39 35 -191 0
-39 -35 191 0
40 35 272 0
40 -35 -272 0
-40 35 -272 0
-40 -35 272 0
41 35 280 0
41 -35 -280 0
-41 35 -280 0
-41 -35 280 0
42 35 313 0
42 -35 -313 0
-42 35 -313 0
-42 -35 313 0
43 35 340 0
43 -35 -340 0
-43 35 -340 0
-43 -35 340 0
44 35 389 0
44 -35 -389 0
-44 35 -389 0
-44 -35 389 0
45 35 408 0
45 -35 -408 0
-45 35 -408 0
-45 -35 408 0
46 35 410 0
46 -35 -410 0
-46 35 -410 0
-46 -35 410 0
47 35 416 0
47 -35 -416 0
-47 35 -416 0
-47 -35 416 0
49 48 58 0
49 -48 -58 0
-49 48 -58 0
-49 -48 58 0
50 48 105 0
50 -48 -105 0
-50 48 -105 0
-50 -48 105 0
51 48 198 0
51 -48 -198 0
-51 48 -198 0
-51 -48 198 0
52 48 212 0
52 -48 -212 0
-52 48 -212 0
-52 -48 212 0
53 48 272 0
53 -48 -272 0
-53 48 -272 0
-53 -48 272 0
54 48 280 0
54 -48 -280 0
-54 48 -280 0
-54 -48 280 0
55 48 325 0
55 -48 -325 0
-55 48 -325 0
-55 -48 325 0
56 48 399 0
56 -48 -399 0
-56 48 -399 0
-56 -48 399 0
57 48 411 0
57 -48 -411 0
-57 48 -411 0
-57 -48 411 0
59 58 142 0
59 -58 -142 0
-59 58 -142 0
-59 -58 142 0
60 58 198 0
60 -58 -198 0
-60 58 -198 0
-60 -58 198 0
61 58 219 0
61 -58 -219 0
-61 58 -219 0
-61 -58 219 0
62 58 246 0
62 -58 -246 0
-62 58 -246 0
-62 -58 246 0
63 58 323 0
63 -58 -323 0
-63 58 -323 0
-63 -58 323 0
64 58 357 0
64 -58 -357 0
-64 58 -357 0
-64 -58 357 0
65 58 364 0
65 -58 -364 0
-65 58 -364 0
-65 -58 364 0
66 58 368 0
66 -58 -368 0
-66 58 -368 0
-66 -58 368 0
67 58 396 0
67 -58 -396 0
-67 58 -396 0
-67 -58 396 0
69 68 164 0
69 -68 -164 0
-69 68 -164 0
-69 -68 164 0
70 68 246 0
70 -68 -246 0
-70 68 -246 0
-70 -68 246 0
71 68 286 0
71 -68 -286 0
-71 68 -286 0
-71 -68 286 0
72 68 330 0
72 -68 -330 0
-72 68 -330 0
-72 -68 330 0
73 68 372 0
73 -68 -372 0
-73 68 -372 0
-73 -68 372 0
74 68 384 0
74 -68 -384 0
-74 68 -384 0
-74 -68 384 0
75 68 405 0
75 -68 -405 0
-75 68 -405 0
-75 -68 405 0
76 68 411 0
76 -68 -411 0
-76 68 -411 0
-76 -68 411 0
78 77 164 0
78 -77 -164 0
-78 77 -164 0
-78 -77 164 0
79 77 212 0
79 -77 -212 0
-79 77 -212 0
-79 -77 212 0
80 77 219 0
80 -77 -219 0
-80 77 -219 0
-80 -77 219 0
81 77 256 0
81 -77 -256 0
-81 77 -256 0
-81 -77 256 0
82 77 330 0
82 -77 -330 0
-82 77 -330 0
-82 -77 330 0
83 77 340 0
83 -77 -340 0
-83 77 -340 0
-83 -77 340 0
84 77 352 0
84 -77 -352 0
-84 77 -352 0
-84 -77 352 0
85 77 372 0
85 -77 -372 0
-85 77 -372 0
-85 -77 372 0
86 77 378 0
86 -77 -378 0
-86 77 -378 0
-86 -77 378 0
87 77 417 0
87 -77 -417 0
-87 77 -417 0
-87 -77 417 0
89 88 105 0
89 -88 -105 0
-89 88 -105 0
-89 -88 105 0
90 88 120 0
90 -88 -120 0
-90 88 -120 0
-90 -88 120 0
91 88 129 0
91 -88 -129 0
-91 88 -129 0
-91 -88 129 0
92 88 191 0
92 -88 -191 0
-92 88 -191 0
-92 -88 191 0
93 88 219 0
93 -88 -219 0
-93 88 -219 0
-93 -88 219 0
94 88 236 0
94 -88 -236 0
-94 88 -236 0
-94 -88 236 0
95 88 264 0
95 -88 -264 0
-95 88 -264 0
-95 -88 264 0
96 88 297 0
96 -88 -297 0
-96 88 -297 0
-96 -88 297 0
97 88 352 0
97 -88 -352 0
-97 88 -352 0
-97 -88 352 0
98 88 357 0
98 -88 -357 0
-98 88 -357 0
-98 -88 357 0
99 88 372 0
99 -88 -372 0
-99 88 -372 0
-99 -88 372 0
100 88 386 0
100 -88 -386 0
-100 88 -386 0
-100 -88 386 0
101 88 389 0
101 -88 -389 0
-101 88 -389 0
-101 -88 389 0
102 88 399 0
102 -88 -399 0
-102 88 -399 0
-102 -88 399 0
103 88 410 0
103 -88 -410 0
-103 88 -410 0
-103 -88 410 0
104 88 416 0
104 -88 -416 0
-104 88 -416 0
-104 -88 416 0
106 105 173 0
106 -105 -173 0
-106 105 -173 0
-106 -105 173 0
107 105 264 0
107 -105 -264 0
-107 105 -264 0
-107 -105 264 0
108 105 304 0
108 -105 -304 0
-108 105 -304 0
-108 -105 304 0
109 105 313 0
109 -105 -313 0
-109 105 -313 0
-109 -105 313 0
110 105 325 0
110 -105 -325 0
-110 105 -325 0
-110 -105 325 0
111 105 419 0
111 -105 -419 0
-111 105 -419 0
-111 -105 419 0
113 112 164 0
113 -112 -164 0
-113 112 -164 0
-113 -112 164 0
114 112 219 0
114 -112 -219 0
-114 112 -219 0
-114 -112 219 0
115 112 317 0
115 -112 -317 0
-115 112 -317 0
-115 -112 317 0
116 112 374 0
116 -112 -374 0
-116 112 -374 0
-116 -112 374 0
117 112 386 0
117 -112 -386 0
-117 112 -386 0
-117 -112 386 0
118 112 410 0
118 -112 -410 0
-118 112 -410 0
-118 -112 410 0
119 112 419 0
119 -112 -419 0
-119 112 -419 0
-119 -112 419 0
121 120 212 0
121 -120 -212 0
-121 120 -212 0
-121 -120 212 0
122 120 250 0
122 -120 -250 0
-122 120 -250 0
-122 -120 250 0
123 120 325 0
123 -120 -325 0
-123 120 -325 0
-123 -120 325 0
124 120 372 0
124 -120 -372 0
-124 120 -372 0
-124 -120 372 0
125 120 386 0
125 -120 -386 0
-125 120 -386 0
-125 -120 386 0
126 120 399 0
126 -120 -399 0
-126 120 -399 0
-126 -120 399 0
127 120 402 0
127 -120 -402 0
-127 120 -402 0
-127 -120 402 0
128 120 419 0
128 -120 -419 0
-128 120 -419 0
-128 -120 419 0
130 129 219 0
130 -129 -219 0
-130 129 -219 0
-130 -129 219 0
131 129 352 0
131 -129 -352 0
-131 129 -352 0
-131 -129 352 0
132 129 357 0
132 -129 -357 0
-132 129 -357 0
-132 -129 357 0
133 129 386 0
133 -129 -386 0
-133 129 -386 0
-133 -129 386 0
134 129 393 0
134 -129 -393 0
-134 129 -393 0
-134 -129 393 0
135 129 405 0
135 -129 -405 0
-135 129 -405 0
-135 -129 405 0
136 129 419 0
136 -129 -419 0
-136 129 -419 0
-136 -129 419 0
138 137 246 0
138 -137 -246 0
-138 137 -246 0
-138 -137 246 0
139 137 297 0
139 -137 -297 0
-139 137 -297 0
-139 -137 297 0
140 137 304 0
140 -137 -304 0
-140 137 -304 0
-140 -137 304 0
141 137 372 0
141 -137 -372 0
-141 137 -372 0
-141 -137 372 0
143 142 173 0
143 -142 -173 0
-143 142 -173 0
-143 -142 173 0
144 142 186 0
144 -142 -186 0
-144 142 -186 0
-144 -142 186 0
145 142 191 0
145 -142 -191 0
-145 142 -191 0
-145 -142 191 0
146 142 198 0
146 -142 -198 0
-146 142 -198 0
-146 -142 198 0
147 142 219 0
147 -142 -219 0
-147 142 -219 0
-147 -142 219 0
148 142 236 0
148 -142 -236 0
-148 142 -236 0
-148 -142 236 0
149 142 246 0
149 -142 -246 0
-149 142 -246 0
-149 -142 246 0
150 142 272 0
150 -142 -272 0
-150 142 -272 0
-150 -142 272 0
151 142 317 0
151 -142 -317 0
-151 142 -317 0
-151 -142 317 0
152 142 357 0
152 -142 -357 0
-152 142 -357 0
-152 -142 357 0
153 142 378 0
153 -142 -378 0
-153 142 -378 0
-153 -142 378 0
154 142 393 0
154 -142 -393 0
-154 142 -393 0
-154 -142 393 0
155 142 411 0
155 -142 -411 0
-155 142 -411 0
-155 -142 411 0
157 156 272 0
157 -156 -272 0
-157 156 -272 0
-157 -156 272 0
158 156 293 0
158 -156 -293 0
-158 156 -293 0
-158 -156 293 0
159 156 346 0
159 -156 -346 0
-159 156 -346 0
-159 -156 346 0
160 156 357 0
160 -156 -357 0
-160 156 -357 0
-160 -156 357 0
161 156 364 0
161 -156 -364 0
-161 156 -364 0
-161 -156 364 0
162 156 386 0
162 -156 -386 0
-162 156 -386 0
-162 -156 386 0
163 156 396 0
163 -156 -396 0
-163 156 -396 0
-163 -156 396 0
165 164 173 0
165 -164 -173 0
-165 164 -173 0
-165 -164 173 0
166 164 212 0
166 -164 -212 0
-166 164 -212 0
-166 -164 212 0
167 164 246 0
167 -164 -246 0
-167 164 -246 0
-167 -164 246 0
168 164 304 0
168 -164 -304 0
-168 164 -304 0
-168 -164 304 0
169 164 357 0
169 -164 -357 0
-169 164 -357 0
-169 -164 357 0
170 164 374 0
170 -164 -374 0
-170 164 -374 0
-170 -164 374 0
171 164 402 0
171 -164 -402 0
-171 164 -402 0
-171 -164 402 0
172 164 411 0
172 -164 -411 0
-172 164 -411 0
-172 -164 411 0
174 173 207 0
174 -173 -207 0
-174 173 -207 0
-174 -173 207 0
175 173 236 0
175 -173 -236 0
-175 173 -236 0
-175 -173 236 0
176 173 317 0
176 -173 -317 0
-176 173 -317 0
-176 -173 317 0
177 173 330 0
177 -173 -330 0
-177 173 -330 0
-177 -173 330 0
178 173 357 0
178 -173 -357 0
-178 173 -357 0
-178 -173 357 0
179 173 368 0
179 -173 -368 0
-179 173 -368 0
-179 -173 368 0
180 173 378 0
180 -173 -378 0
-180 173 -378 0
-180 -173 378 0
181 173 384 0
181 -173 -384 0
-181 173 -384 0
-181 -173 384 0
182 173 386 0
182 -173 -386 0
-182 173 -386 0
-182 -173 386 0
183 173 387 0
183 -173 -387 0
-183 173 -387 0
-183 -173 387 0
184 173 396 0
184 -173 -396 0
-184 173 -396 0
-184 -173 396 0
185 173 413 0
185 -173 -413 0
-185 173 -413 0
-185 -173 413 0
187 186 297 0
187 -186 -297 0
-187 186 -297 0
-187 -186 297 0
188 186 304 0
188 -186 -304 0
-188 186 -304 0
-188 -186 304 0
189 186 346 0
189 -186 -346 0
-189 186 -346 0
-189 -186 346 0
190 186 364 0
190 -186 -364 0
-190 186 -364 0
-190 -186 364 0
192 191 260 0
192 -191 -260 0
-192 191 -260 0
-192 -191 260 0
193 191 264 0
193 -191 -264 0
-193 191 -264 0
-193 -191 264 0
194 191 297 0
194 -191 -297 0
-194 191 -297 0
-194 -191 297 0
195 191 357 0
195 -191 -357 0
-195 191 -357 0
-195 -191 357 0
196 191 413 0
196 -191 -413 0
-196 191 -413 0
-196 -191 413 0
197 191 415 0
197 -191 -415 0
-197 191 -415 0
-197 -191 415 0
199 198 256 0
199 -198 -256 0
-199 198 -256 0
-199 -198 256 0
200 198 336 0
200 -198 -336 0
-200 198 -336 0
-200 -198 336 0
201 198 346 0
201 -198 -346 0
-201 198 -346 0
-201 -198 346 0
202 198 352 0
202 -198 -352 0
-202 198 -352 0
-202 -198 352 0
203 198 357 0
203 -198 -357 0
-203 198 -357 0
-203 -198 357 0
204 198 372 0
204 -198 -372 0
-204 198 -372 0
-204 -198 372 0
205 198 384 0
205 -198 -384 0
-205 198 -384 0
-205 -198 384 0
206 198 396 0
206 -198 -396 0
-206 198 -396 0
-206 -198 396 0
208 207 236 0
208 -207 -236 0
-208 207 -236 0
-208 -207 236 0
209 207 293 0
209 -207 -293 0
-209 207 -293 0
-209 -207 293 0
210 207 304 0
210 -207 -304 0
-210 207 -304 0
-210 -207 304 0
211 207 389 0
211 -207 -389 0
-211 207 -389 0
-211 -207 389 0
213 212 264 0
213 -212 -264 0
-213 212 -264 0
-213 -212 264 0
214 212 272 0
214 -212 -272 0
-214 212 -272 0
-214 -212 272 0
215 212 286 0
215 -212 -286 0
-215 212 -286 0
-215 -212 286 0
216 212 293 0
216 -212 -293 0
-216 212 -293 0
-216 -212 293 0
217 212 387 0
217 -212 -387 0
-217 212 -387 0
-217 -212 387 0
218 212 402 0
218 -212 -402 0
-218 212 -402 0
-218 -212 402 0
220 219 293 0
220 -219 -293 0
-220 219 -293 0
-220 -219 293 0
221 219 346 0
221 -219 -346 0
-221 219 -346 0
-221 -219 346 0
222 219 364 0
222 -219 -364 0
-222 219 -364 0
-222 -219 364 0
224 223 280 0
224 -223 -280 0
-224 223 -280 0
-224 -223 280 0
225 223 317 0
225 -223 -317 0
-225 223 -317 0
-225 -223 317 0
226 223 364 0
226 -223 -364 0
-226 223 -364 0
-226 -223 364 0
227 223 386 0
227 -223 -386 0
-227 223 -386 0
-227 -223 386 0
228 223 389 0
228 -223 -389 0
-228 223 -389 0
-228 -223 389 0
230 229 264 0
230 -229 -264 0
-230 229 -264 0
-230 -229 264 0
231 229 286 0
231 -229 -286 0
-231 229 -286 0
-231 -229 286 0
232 229 357 0
232 -229 -357 0
-232 229 -357 0
-232 -229 357 0
233 229 364 0
233 -229 -364 0
-233 229 -364 0
-233 -229 364 0
234 229 387 0
234 -229 -387 0
-234 229 -387 0
-234 -229 387 0
235 229 408 0
235 -229 -408 0
-235 229 -408 0
-235 -229 408 0
237 236 246 0
237 -236 -246 0
-237 236 -246 0
-237 -236 246 0
238 236 272 0
238 -236 -272 0
-238 236 -272 0
-238 -236 272 0
239 236 297 0
239 -236 -297 0
-239 236 -297 0
-239 -236 297 0
240 236 313 0
240 -236 -313 0
-240 236 -313 0
-240 -236 313 0
241 236 323 0
241 -236 -323 0
-241 236 -323 0
-241 -236 323 0
242 236 346 0
242 -236 -346 0
-242 236 -346 0
-242 -236 346 0
243 236 386 0
243 -236 -386 0
-243 236 -386 0
-243 -236 386 0
244 236 387 0
244 -236 -387 0
-244 236 -387 0
-244 -236 387 0
245 236 417 0
245 -236 -417 0
-245 236 -417 0
-245 -236 417 0
247 246 293 0
247 -246 -293 0
-247 246 -293 0
-247 -246 293 0
248 246 378 0
248 -246 -378 0
-248 246 -378 0
-248 -246 378 0
249 246 396 0
249 -246 -396 0
-249 246 -396 0
-249 -246 396 0
251 250 264 0
251 -250 -264 0
-251 250 -264 0
-251 -250 264 0
252 250 293 0
252 -250 -293 0
-252 250 -293 0
-252 -250 293 0
253 250 389 0
253 -250 -389 0
-253 250 -389 0
-253 -250 389 0
254 250 405 0
254 -250 -405 0
-254 250 -405 0
-254 -250 405 0
255 250 417 0
255 -250 -417 0
-255 250 -417 0
-255 -250 417 0
257 256 323 0
257 -256 -323 0
-257 256 -323 0
-257 -256 323 0
258 256 325 0
258 -256 -325 0
-258 256 -325 0
-258 -256 325 0
259 256 411 0
259 -256 -411 0
-259 256 -411 0
-259 -256 411 0
261 260 293 0
261 -260 -293 0
-261 260 -293 0
-261 -260 293 0
262 260 364 0
262 -260 -364 0
-262 260 -364 0
-262 -260 364 0
263 260 405 0
263 -260 -405 0
-263 260 -405 0
-263 -260 405 0
265 264 272 0
265 -264 -272 0
-265 264 -272 0
-265 -264 272 0
266 264 297 0
266 -264 -297 0
-266 264 -297 0
-266 -264 297 0
267 264 304 0
267 -264 -304 0
-267 264 -304 0
-267 -264 304 0
268 264 346 0
268 -264 -346 0
-268 264 -346 0
-268 -264 346 0
269 264 357 0
269 -264 -357 0
-269 264 -357 0
-269 -264 357 0
270 264 372 0
270 -264 -372 0
-270 264 -372 0
-270 -264 372 0
271 264 415 0
271 -264 -415 0
-271 264 -415 0
-271 -264 415 0
273 272 286 0
273 -272 -286 0
-273 272 -286 0
-273 -272 286 0
274 272 293 0
274 -272 -293 0
-274 272 -293 0
-274 -272 293 0
275 272 336 0
275 -272 -336 0
-275 272 -336 0
-275 -272 336 0
276 272 393 0
276 -272 -393 0
-276 272 -393 0
-276 -272 393 0
277 272 396 0
277 -272 -396 0
-277 272 -396 0
-277 -272 396 0
278 272 410 0
278 -272 -410 0
-278 272 -410 0
-278 -272 410 0
279 272 419 0
279 -272 -419 0
-279 272 -419 0
-279 -272 419 0
281 280 396 0
281 -280 -396 0
-281 280 -396 0
-281 -280 396 0
282 280 405 0
282 -280 -405 0
-282 280 -405 0
-282 -280 405 0
283 280 408 0
283 -280 -408 0
-283 280 -408 0
-283 -280 408 0
284 280 410 0
284 -280 -410 0
-284 280 -410 0
-284 -280 410 0
285 280 416 0
285 -280 -416 0
-285 280 -416 0
-285 -280 416 0
287 286 313 0
287 -286 -313 0
-287 286 -313 0
-287 -286 313 0
288 286 317 0
288 -286 -317 0
-288 286 -317 0
-288 -286 317 0
289 286 336 0
289 -286 -336 0
-289 286 -336 0
-289 -286 336 0
290 286 378 0
290 -286 -378 0
-290 286 -378 0
-290 -286 378 0
291 286 384 0
291 -286 -384 0
-291 286 -384 0
-291 -286 384 0
292 286 410 0
292 -286 -410 0
-292 286 -410 0
-292 -286 410 0
294 293 387 0
294 -293 -387 0
-294 293 -387 0
-294 -293 387 0
295 293 408 0
295 -293 -408 0
-295 293 -408 0
-295 -293 408 0
296 293 411 0
296 -293 -411 0
-296 293 -411 0
-296 -293 411 0
298 297 323 0
298 -297 -323 0
-298 297 -323 0
-298 -297 323 0
299 297 336 0
299 -297 -336 0
-299 297 -336 0
-299 -297 336 0
300 297 384 0
300 -297 -384 0
-300 297 -384 0
-300 -297 384 0
301 297 389 0
301 -297 -389 0
-301 297 -389 0
-301 -297 389 0
302 297 410 0
302 -297 -410 0
-302 297 -410 0
-302 -297 410 0
303 297 417 0
303 -297 -417 0
-303 297 -417 0
-303 -297 417 0
305 304 336 0
305 -304 -336 0
-305 304 -336 0
-305 -304 336 0
306 304 340 0
306 -304 -340 0
-306 304 -340 0
-306 -304 340 0
307 304 386 0
307 -304 -386 0
-307 304 -386 0
-307 -304 386 0
308 304 387 0
308 -304 -387 0
-308 304 -387 0
-308 -304 387 0
309 304 393 0
309 -304 -393 0
-309 304 -393 0
-309 -304 393 0
310 304 411 0
310 -304 -411 0
-310 304 -411 0
-310 -304 411 0
311 304 415 0
311 -304 -415 0
-311 304 -415 0
-311 -304 415 0
312 304 419 0
312 -304 -419 0
-312 304 -419 0
-312 -304 419 0
314 313 372 0
314 -313 -372 0
-314 313 -372 0
-314 -313 372 0
315 313 378 0
315 -313 -378 0
-315 313 -378 0
-315 -313 378 0
316 313 402 0
316 -313 -402 0
-316 313 -402 0
-316 -313 402 0
318 317 352 0
318 -317 -352 0
-318 317 -352 0
-318 -317 352 0
319 317 378 0
319 -317 -378 0
-319 317 -378 0
-319 -317 378 0
320 317 396 0
320 -317 -396 0
-320 317 -396 0
-320 -317 396 0
321 317 402 0
321 -317 -402 0
-321 317 -402 0
-321 -317 402 0
322 317 417 0
322 -317 -417 0
-322 317 -417 0
-322 -317 417 0
324 323 372 0
324 -323 -372 0
-324 323 -372 0
-324 -323 372 0
326 325 340 0
326 -325 -340 0
-326 325 -340 0
-326 -325 340 0
327 325 393 0
327 -325 -393 0
-327 325 -393 0
-327 -325 393 0
328 325 399 0
328 -325 -399 0
-328 325 -399 0
-328 -325 399 0
329 325 411 0
329 -325 -411 0
-329 325 -411 0
-329 -325 411 0
331 330 352 0
331 -330 -352 0
-331 330 -352 0
-331 -330 352 0
332 330 364 0
332 -330 -364 0
-332 330 -364 0
-332 -330 364 0
333 330 372 0
333 -330 -372 0
-333 330 -372 0
-333 -330 372 0
334 330 386 0
334 -330 -386 0
-334 330 -386 0
-334 -330 386 0
335 330 416 0
335 -330 -416 0
-335 330 -416 0
-335 -330 416 0
337 336 340 0
337 -336 -340 0
-337 336 -340 0
-337 -336 340 0
338 336 378 0
338 -336 -378 0
-338 336 -378 0
-338 -336 378 0
339 336 415 0
339 -336 -415 0
-339 336 -415 0
-339 -336 415 0
341 340 346 0
341 -340 -346 0
-341 340 -346 0
-341 -340 346 0
342 340 357 0
342 -340 -357 0
-342 340 -357 0
-342 -340 357 0
343 340 402 0
343 -340 -402 0
-343 340 -402 0
-343 -340 402 0
344 340 405 0
344 -340 -405 0
-344 340 -405 0
-344 -340 405 0
345 340 415 0
345 -340 -415 0
-345 340 -415 0
-345 -340 415 0
347 346 357 0
347 -346 -357 0
-347 346 -357 0
-347 -346 357 0
348 346 364 0
348 -346 -364 0
-348 346 -364 0
-348 -346 364 0
349 346 386 0
349 -346 -386 0
-349 346 -386 0
-349 -346 386 0
350 346 396 0
350 -346 -396 0
-350 346 -396 0
-350 -346 396 0
351 346 417 0
351 -346 -417 0
-351 346 -417 0
-351 -346 417 0
353 352 393 0
353 -352 -393 0
-353 352 -393 0
-353 -352 393 0
354 352 396 0
354 -352 -396 0
-354 352 -396 0
-354 -352 396 0
355 352 399 0
355 -352 -399 0
-355 352 -399 0
-355 -352 399 0
356 352 413 0
356 -352 -413 0
-356 352 -413 0
-356 -352 413 0
358 357 364 0
358 -357 -364 0
-358 357 -364 0
-358 -357 364 0
359 357 389 0
359 -357 -389 0
-359 357 -389 0
-359 -357 389 0
360 357 393 0
360 -357 -393 0
-360 357 -393 0
-360 -357 393 0
361 357 396 0
361 -357 -396 0
-361 357 -396 0
-361 -357 396 0
362 357 410 0
362 -357 -410 0
-362 357 -410 0
-362 -357 410 0
363 357 417 0
363 -357 -417 0
-363 357 -417 0
-363 -357 417 0
365 364 402 0
365 -364 -402 0
-365 364 -402 0
-365 -364 402 0
366 364 411 0
366 -364 -411 0
-366 364 -411 0
-366 -364 411 0
367 364 417 0
367 -364 -417 0
-367 364 -417 0
-367 -364 417 0
369 368 387 0
369 -368 -387 0
-369 368 -387 0
-369 -368 387 0
370 368 405 0
370 -368 -405 0
-370 368 -405 0
-370 -368 405 0
371 368 416 0
371 -368 -416 0
-371 368 -416 0
-371 -368 416 0
373 372 411 0
373 -372 -411 0
-373 372 -411 0
-373 -372 411 0
375 374 378 0
375 -374 -378 0
-375 374 -378 0
-375 -374 378 0
376 374 410 0
376 -374 -410 0
-376 374 -410 0
-376 -374 410 0
377 374 415 0
377 -374 -415 0
-377 374 -415 0
-377 -374 415 0
379 378 384 0
379 -378 -384 0
-379 378 -384 0
-379 -378 384 0
380 378 396 0
380 -378 -396 0
-380 378 -396 0
-380 -378 396 0
381 378 405 0
381 -378 -405 0
-381 378 -405 0
-381 -378 405 0
382 378 410 0
382 -378 -410 0
-382 378 -410 0
-382 -378 410 0
383 378 415 0
383 -378 -415 0
-383 378 -415 0
-383 -378 415 0
385 384 402 0
385 -384 -402 0
-385 384 -402 0
-385 -384 402 0
388 387 411 0
388 -387 -411 0
-388 387 -411 0
-388 -387 411 0
390 389 396 0
390 -389 -396 0
-390 389 -396 0
-390 -389 396 0
391 389 402 0
391 -389 -402 0
-391 389 -402 0
-391 -389 402 0
392 389 416 0
392 -389 -416 0
-392 389 -416 0
-392 -389 416 0
394 393 402 0
394 -393 -402 0
-394 393 -402 0
-394 -393 402 0
395 393 417 0
395 -393 -417 0
-395 393 -417 0
-395 -393 417 0
397 396 411 0
397 -396 -411 0
-397 396 -411 0
-397 -396 411 0
398 396 416 0
398 -396 -416 0
-398 396 -416 0
-398 -396 416 0
400 399 410 0
400 -399 -410 0
-400 399 -410 0
-400 -399 410 0
401 399 419 0
401 -399 -419 0
-401 399 -419 0
-401 -399 419 0
403 402 408 0
403 -402 -408 0
-403 402 -408 0
-403 -402 408 0
404 402 413 0
404 -402 -413 0
-404 402 -413 0
-404 -402 413 0
406 405 408 0
406 -405 -408 0
-406 405 -408 0
-406 -405 408 0
407 405 413 0
407 -405 -413 0
-407 405 -413 0
-407 -405 413 0
409 408 411 0
409 -408 -411 0
-409 408 -411 0
-409 -408 411 0
412 411 419 0
412 -411 -419 0
-412 411 -419 0
-412 -411 419 0
414 413 417 0
414 -413 -417 0
-414 413 -417 0
-414 -413 417 0
418 417 419 0
418 -417 -419 0
-418 417 -419 0
-418 -417 419 0
